122416
135 123 114 102 113 112 115 122 134 126 127 110 111 103 124 0 12 21 33 22 23 32 20 13 1 9 8 25 24 10 11 34 46 55 64 56 57 65 54 47 43 58 35 44 45 59 42 53 19 100 88 81 77 76 82 93 92 91 90 101 89 80 71 79 78 70 69 83 87 99 94 95 86 84 68 74 75 104 117 121 120 118 107 106 131 130 132 129 128 2 14 18 26 27 30 5 4 29 28 17 15 3 6 7 31 36 48 52 66 60 37 39 49 51 40 41 61 67 62 63 38 50 16 119 85 72 73 97 96 98 105 108 109 133 116 125 
